proyfinal/src/viki/013/andrea/andrea-localstore/experimentInOfficeAgust.take6/worker_6/7a2c7a21-fa69-49bb-af16-26e777ebc3f8.als.cnf.out
Reading from standard input... Use '--help' for help.
============================[ Problem Statistics ]=============================
|                                                                             |
|  Number of variables:         87638                                         |
|  Number of clauses:          161767                                         |
|  Parse time:                   0.04 s                                       |
|                                                                             |
============================[ Search Statistics ]==============================
| Conflicts |          ORIGINAL         |          LEARNT          | Progress |
|           |    Vars  Clauses Literals |    Limit  Clauses Lit/Cl |          |
===============================================================================
|       100 |   62305   104930   262210 |    38474      100     10 | 28.906 % |
|       250 |   62304   104886   262120 |    42321      249     40 | 28.908 % |
|       475 |   62304   104886   262120 |    46553      474     38 | 28.908 % |
|       812 |   62282   104794   261909 |    51209      810     83 | 28.933 % |
|      1318 |   62262   104710   261716 |    56330     1315    108 | 28.955 % |
|      2077 |   62262   104710   261716 |    61963     2074     92 | 28.955 % |
|      3216 |   62262   104710   261716 |    68159     3213    104 | 28.956 % |
|      4924 |   51006    71475   179685 |    74975     4802     89 | 41.799 % |
|      7486 |   50783    70747   177969 |    82473     7325     72 | 42.054 % |
|     11330 |   50500    69545   175099 |    90720    11116     62 | 42.377 % |
===============================================================================
restarts              : 62
conflicts             : 14574          (8461 /sec)
decisions             : 48634          (0.00 % random) (28233 /sec)
propagations          : 18651157       (10827486 /sec)
conflict literals     : 839518         (44.67 % deleted)
Memory used           : 34.51 MB
CPU time              : 1.72257 s

UNSATISFIABLE
